[[59, 14, 53, 35, 7, 8, 46, 52, 34, 67, 4, 75, 68, 6, 76, 17, 26, 12, 11, 66, 65, 38, 10, 58, 72, 39, 31, 9, 25, 55], [18, 50, 32, 44, 3, 40, 51, 16, 63, 49, 24, 23, 56, 41, 43, 42, 64, 22, 62, 73, 33], [2, 30, 74, 28, 61, 21, 47, 36, 69, 71, 60, 70, 20, 37, 5, 48, 29, 45, 15, 57, 27, 13, 54, 19]]